
  32    4
  10   10   10   10

   0   0   0   0   0   1 2 
   8   1   1   1   0   2 6 3 
   1   8   4   6   0   1 4 
   4   6   0   6   1   1 5 
   1   3   4   5   0   2 11 7 
   5   0   3   4   4   2 11 7 
   9   4   0   7   1   2 10 8 
   9   0   6   3   5   1 9 
   8   4   0   4   3   3 18 14 12 
  10   2   0   3   6   3 18 14 13 
   1   6   0   5   3   3 18 14 13 
   6   4   7   4   0   1 13 
   2   6   0   4   7   1 15 
   2   5   5   0   4   1 15 
   5   6   2   3   0   1 16 
   8   2   3   0   3   2 19 17 
   1   0   5   3   5   1 20 
   7   0   4   1   3   1 19 
   7   5   3   0   5   1 21 
   9   0   4   1   5   1 21 
   1   3   0   6   5   2 24 22 
   7   3   5   5   0   1 23 
   3   6   0   5   5   2 27 25 
   8   0   5   5   5   2 27 25 
   6   3   5   4   0   1 26 
   7   1   5   0   4   1 28 
   3   0   3   3   3   1 29 
   7   2   4   0   3   1 30 
   7   3   0   4   4   1 30 
   4   5   5   0   3   1 31 
   4   0   1   4   5   1 32
   0   0   0   0   0   0 
